100	5
25	200
10
7
13
19
26
3
5
9
16
16
12
19
23
20
8
19
2
12
17
9
11
18
29
3
6
17
16
16
9
21
27
23
11
14
8
5
8
16
31
9
5
5
7
18
16
1
27
36
30
13
10
9
14
18
2
6
7
18
28
3
13
19
10
9
20
25
25
36
6
5
15
25
9
8
18
13
14
3
23
6
26
16
11
7
41
35
26
9
15
3
1
2
22
27
20
11
12
10
9
17
35	35	0	230	0	0
41	49	0	204	10	1
35	17	0	202	10	3
55	45	0	197	10	3
55	20	149	159	10	2
15	30	0	199	10	1
25	30	0	208	10	1
20	50	0	198	10	1
10	43	95	105	10	2
55	60	97	107	10	1
30	60	0	194	10	3
20	65	67	77	10	3
50	35	0	205	10	2
30	25	159	169	10	3
15	10	0	187	10	3
30	5	61	71	10	1
10	20	0	190	10	1
5	30	0	189	10	3
20	40	0	204	10	2
15	60	0	187	10	1
45	65	0	188	10	1
45	20	0	201	10	1
45	10	0	193	10	2
55	5	68	78	10	2
65	35	0	190	10	1
65	20	172	182	10	2
45	30	0	208	10	2
35	40	0	215	10	3
41	37	0	213	10	3
64	42	0	190	10	2
40	60	0	194	10	2
31	52	0	202	10	3
35	69	0	186	10	3
53	52	0	195	10	1
65	55	0	183	10	2
63	65	0	178	10	2
2	60	0	178	10	1
20	20	0	198	10	1
5	5	83	93	10	3
60	12	0	186	10	1
40	25	0	208	10	2
42	7	0	191	10	2
24	12	0	194	10	1
23	3	0	185	10	2
11	14	69	79	10	1
6	38	0	190	10	1
2	48	0	184	10	1
8	56	0	185	10	3
13	52	0	192	10	1
6	68	0	176	10	1
47	47	0	203	10	3
49	58	0	193	10	3
27	43	0	208	10	3
37	31	95	105	10	3
57	29	0	197	10	2
63	23	136	146	10	2
53	12	0	190	10	3
32	12	0	196	10	1
36	26	200	210	10	3
21	24	0	202	10	1
17	34	0	201	10	1
12	24	0	194	10	2
24	58	58	68	10	3
27	69	0	185	10	1
15	77	0	173	10	1
62	77	0	170	10	2
49	73	0	179	10	2
67	5	83	93	10	1
56	39	0	198	10	1
37	47	50	60	10	3
37	56	0	198	10	1
57	68	0	180	10	1
47	16	0	197	10	1
44	17	0	199	10	3
46	13	149	159	10	1
49	11	0	192	10	1
49	42	73	83	10	1
53	43	179	189	10	2
61	52	0	188	10	3
57	48	92	102	10	2
56	37	0	198	10	2
55	54	0	192	10	3
15	47	0	196	10	3
14	37	0	198	10	2
11	31	101	111	10	3
16	22	0	196	10	3
4	18	0	184	10	2
28	18	93	103	10	1
26	52	0	200	10	1
26	35	0	211	10	2
31	67	0	187	10	3
15	19	0	194	10	2
22	22	18	28	10	1
18	24	0	199	10	2
26	27	0	207	10	1
25	24	0	205	10	3
22	27	0	204	10	3
25	21	0	202	10	2
19	21	0	198	10	3
20	26	83	93	10	1
18	18	185	195	10	3
4	10	0	230	5	4
49	12	0	230	5	4
32	4	0	230	5	4
34	49	0	230	5	4
46	41	0	230	5	4
0	0	0	0	0	
0	0	1	0	0	
0	0	0	0	1	
0	1	0	0	0	
0	0	0	0	0	
0	0	0	0	0	
0	0	0	0	0	
0	0	0	1	0	
0	0	0	0	0	
0	0	0	1	0	
0	0	0	1	0	
0	0	0	0	1	
0	0	1	0	0	
1	0	0	0	0	
0	0	0	0	0	
0	0	0	0	0	
1	0	0	0	0	
0	0	0	1	0	
0	0	0	0	0	
0	0	0	0	0	
0	0	0	0	0	
0	1	0	0	0	
0	1	0	0	0	
0	0	0	0	0	
0	1	0	0	0	
0	0	0	0	1	
0	0	0	1	0	
0	0	0	0	1	
0	0	0	0	1	
0	0	0	1	0	
0	0	0	1	0	
0	0	0	1	0	
0	0	0	0	0	
0	0	0	0	1	
0	0	0	0	1	
0	0	0	0	0	
0	0	0	0	0	
1	0	0	0	0	
0	0	0	0	0	
0	1	0	0	0	
0	1	0	0	0	
0	0	0	0	0	
0	0	1	0	0	
0	0	0	0	0	
0	0	0	0	0	
0	0	0	0	0	
0	0	0	1	0	
0	0	0	0	0	
0	0	0	0	0	
0	0	0	0	1	
0	0	0	0	1	
0	0	0	1	0	
0	0	0	0	1	
0	0	0	0	1	
0	1	0	0	0	
0	1	0	0	0	
0	0	0	0	0	
0	0	0	0	1	
0	0	0	0	0	
0	0	0	0	0	
1	0	0	0	0	
0	0	0	1	0	
0	0	0	0	0	
0	0	0	0	0	
0	0	0	0	1	
0	0	0	1	0	
0	0	0	0	0	
0	0	0	0	0	
0	0	0	1	0	
0	0	0	0	0	
0	0	0	0	0	
0	0	0	0	0	
0	1	0	0	0	
0	0	0	0	0	
0	0	0	0	0	
0	0	0	0	0	
0	0	0	0	1	
0	0	0	0	1	
0	0	0	0	1	
0	0	0	0	1	
0	0	0	0	1	
0	0	0	1	0	
0	0	0	1	0	
1	0	0	0	0	
1	0	0	0	0	
1	0	0	0	0	
0	0	0	0	0	
0	0	0	0	0	
0	0	0	1	0	
0	0	0	1	0	
1	0	0	0	0	
0	0	0	0	0	
1	0	0	0	0	
0	0	0	0	0	
0	0	1	0	0	
1	0	0	0	0	
0	0	1	0	0	
1	0	0	0	0	
0	0	0	0	0	
1	0	0	0	0	
